17	4
13	11	15	12	
0	0	0	0	0	3	2	3	4	
9	0	4	0	10	3	5	7	11	
5	0	2	0	9	2	8	17	
9	1	10	0	0	3	9	15	17	
8	10	1	9	7	3	6	16	17	
150	0	0	0	5	1	17	
75	9	0	0	10	2	13	14	
250	0	0	0	3	2	10	15	
250	0	5	2	0	2	12	17	
200	0	0	9	0	2	17	17	
75	1	0	2	0	1	14	
225	4	0	0	0	2	17	17	
1	0	0	0	4	2	16	17	
7	0	2	7	0	2	17	17	
1	5	0	3	9	1	17	
4	5	7	8	8	1	17	
0	0	0	0	0	0	
